/*********************************************
 * OPL 12.6.0.0 Data
 * Author: Adrian Rodriguez Bazaga, Pau Rodriguez Esmerats
 * Creation Date: 06/12/2017 at 23:04:56
 *********************************************/

nNurses=135;
maxConsec=2;
maxPresence=7;
maxHours=5;
minHours=1;
hours=24;
demand= [18 16 23 27 16 23 27 17 15 11 1 3 3 4 4 3 4 2 3 1 22 44 23 29  ];
